data/CVRPLIB/Vrp-Set-XML100/instances/XML100_3311_04.vrp
NAME : XML100_3311_04
COMMENT : Generated by Queiroga, Sadykov, Uchoa, and Vidal (2021)
TYPE : CVRP
DIMENSION : 101
EDGE_WEIGHT_TYPE : EUC_2D
CAPACITY : 4
NODE_COORD_SECTION
1    0    0   
2    466  247 
3    953  478 
4    742  956 
5    947  113 
6    19   516 
7    754  947 
8    84   36  
9    708  574 
10   935  809 
11   270  274 
12   147  804 
13   78   998 
14   769  978 
15   645  615 
16   584  843 
17   528  680 
18   194  695 
19   401  208 
20   472  287 
21   716  975 
22   143  45  
23   584  266 
24   118  741 
25   275  5   
26   53   759 
27   777  10  
28   691  559 
29   376  376 
30   819  928 
31   711  494 
32   517  458 
33   361  404 
34   782  996 
35   753  608 
36   576  472 
37   588  787 
38   423  343 
39   422  301 
40   823  577 
41   97   852 
42   393  635 
43   404  323 
44   680  949 
45   683  866 
46   687  597 
47   55   360 
48   264  713 
49   184  866 
50   691  864 
51   149  871 
52   116  784 
53   430  156 
54   981  847 
55   713  924 
56   1    939 
57   24   586 
58   658  951 
59   404  250 
60   863  551 
61   762  122 
62   165  365 
63   751  490 
64   366  387 
65   494  910 
66   185  770 
67   693  941 
68   155  850 
69   412  335 
70   508  111 
71   794  948 
72   96   842 
73   934  553 
74   169  180 
75   856  805 
76   892  492 
77   91   700 
78   973  577 
79   751  970 
80   826  574 
81   496  418 
82   762  965 
83   377  271 
84   443  520 
85   614  732 
86   881  480 
87   301  176 
88   421  235 
89   330  344 
90   617  880 
91   529  247 
92   381  270 
93   651  908 
94   137  832 
95   457  347 
96   123  372 
97   208  311 
98   372  160 
99   435  362 
100  798  690 
101  745  551 
DEMAND_SECTION
1    0   
2    1   
3    1   
4    1   
5    1   
6    1   
7    1   
8    1   
9    1   
10   1   
11   1   
12   1   
13   1   
14   1   
15   1   
16   1   
17   1   
18   1   
19   1   
20   1   
21   1   
22   1   
23   1   
24   1   
25   1   
26   1   
27   1   
28   1   
29   1   
30   1   
31   1   
32   1   
33   1   
34   1   
35   1   
36   1   
37   1   
38   1   
39   1   
40   1   
41   1   
42   1   
43   1   
44   1   
45   1   
46   1   
47   1   
48   1   
49   1   
50   1   
51   1   
52   1   
53   1   
54   1   
55   1   
56   1   
57   1   
58   1   
59   1   
60   1   
61   1   
62   1   
63   1   
64   1   
65   1   
66   1   
67   1   
68   1   
69   1   
70   1   
71   1   
72   1   
73   1   
74   1   
75   1   
76   1   
77   1   
78   1   
79   1   
80   1   
81   1   
82   1   
83   1   
84   1   
85   1   
86   1   
87   1   
88   1   
89   1   
90   1   
91   1   
92   1   
93   1   
94   1   
95   1   
96   1   
97   1   
98   1   
99   1   
100  1   
101  1   
DEPOT_SECTION
1
-1
EOF
