data/CVRPLIB/Vrp-Set-XML100/solutions/XML100_3311_04.sol
Route #1: 39 79 59 85
Route #2: 1 90 22 19
Route #3: 32 63 28 88
Route #4: 48 50 67 93
Route #5: 6 81 78 3
Route #6: 97 52 18 86
Route #7: 29 70 33 13
Route #8: 82 91 58 87
Route #9: 2 77 72 75
Route #10: 74 53 9 99
Route #11: 69 60 4 26
Route #12: 73 24 21 7
Route #13: 64 89 15 36
Route #14: 76 25 56 5
Route #15: 65 11 51 23
Route #16: 62 30 35 31
Route #17: 55 12 40 71
Route #18: 96 61 95 46
Route #19: 10 42 68 38
Route #20: 83 41 47 17
Route #21: 66 20 43 57
Route #22: 45 14 84 16
Route #23: 94 80 98 37
Route #24: 44 49 54 92
Route #25: 27 8 34 100
Cost 44158
